c 3 - XORSAT
p cnf 10 40
4 9 10 0
-4 -9 10 0
-4 9 -10 0
4 -9 -10 0
1 2 5 0
-1 -2 5 0
-1 2 -5 0
1 -2 -5 0
-4 -6 -7 0
-4 6 7 0
4 -6 7 0
4 6 -7 0
-2 -10 -8 0
-2 10 8 0
2 -10 8 0
2 10 -8 0
-3 -7 -5 0
-3 7 5 0
3 -7 5 0
3 7 -5 0
3 8 9 0
-3 -8 9 0
-3 8 -9 0
3 -8 -9 0
-7 -8 -9 0
-7 8 9 0
7 -8 9 0
7 8 -9 0
-2 -3 -6 0
-2 3 6 0
2 -3 6 0
2 3 -6 0
-1 -4 -5 0
-1 4 5 0
1 -4 5 0
1 4 -5 0
1 6 10 0
-1 -6 10 0
-1 6 -10 0
1 -6 -10 0
